(set-info :smt-lib-version 2.6)
(set-logic AUFBVFPDTNIRA)
(set-info :source |
Generated by: AdaCore
Generated on: 2020-03-06
Generator: SPARK
Application: Program verification for Ada
Target solver: CVC4
|)
(set-info :license "https://creativecommons.org/licenses/by/4.0/")
(set-info :category "industrial")
(set-info :status unknown)
;;; generated by SMT-LIB2 driver
;;; SMT-LIB2 driver: bit-vectors, common part
;;; SMT-LIB2: integer arithmetic
(declare-sort string 0)

(declare-datatypes ((tuple0 0))
(((Tuple0))))
(declare-sort us_private 0)

(declare-fun private__bool_eq (us_private us_private) Bool)

(declare-const us_null_ext__ us_private)

(declare-sort us_type_of_heap 0)

(declare-datatypes ((us_type_of_heap__ref 0))
(((us_type_of_heap__refqtmk (us_type_of_heap__content us_type_of_heap)))))
(declare-sort us_image 0)

(declare-datatypes ((int__ref 0))
(((int__refqtmk (int__content Int)))))
(declare-datatypes ((bool__ref 0))
(((bool__refqtmk (bool__content Bool)))))
(declare-datatypes ((us_fixed__ref 0))
(((us_fixed__refqtmk (us_fixed__content Int)))))
(declare-datatypes ((real__ref 0))
(((real__refqtmk (real__content Real)))))
(declare-datatypes ((us_private__ref 0))
(((us_private__refqtmk (us_private__content us_private)))))
(define-fun int__ref___projection ((a int__ref)) Int (int__content a))

(define-fun us_fixed__ref___projection ((a us_fixed__ref)) Int (us_fixed__content
                                                               a))

(define-fun bool__ref___projection ((a bool__ref)) Bool (bool__content a))

(define-fun real__ref___projection ((a real__ref)) Real (real__content a))

(define-fun us_private__ref___projection ((a us_private__ref)) us_private 
  (us_private__content a))

(declare-fun nth ((_ BitVec 16) Int) Bool)

(declare-fun lsr ((_ BitVec 16) Int) (_ BitVec 16))

(declare-fun asr ((_ BitVec 16) Int) (_ BitVec 16))

(declare-fun lsl ((_ BitVec 16) Int) (_ BitVec 16))

(define-fun abs1 ((x Int)) Int (ite (<= 0 x) x (- x)))

;; Abs_le
  (assert
  (forall ((x Int) (y Int)) (= (<= (abs1 x) y) (and (<= (- y) x) (<= x y)))))

;; Abs_pos
  (assert (forall ((x Int)) (<= 0 (abs1 x))))

;; Div_unique
  (assert
  (forall ((x Int) (y Int) (q Int))
  (=> (< 0 y) (=> (and (<= (* q y) x) (< x (+ (* q y) y))) (= (div x y) q)))))

;; Div_bound
  (assert
  (forall ((x Int) (y Int))
  (=> (and (<= 0 x) (< 0 y)) (and (<= 0 (div x y)) (<= (div x y) x)))))

;; Div_inf
  (assert
  (forall ((x Int) (y Int)) (=> (and (<= 0 x) (< x y)) (= (div x y) 0))))

;; Div_inf_neg
  (assert
  (forall ((x Int) (y Int))
  (=> (and (< 0 x) (<= x y)) (= (div (- x) y) (- 1)))))

;; Mod_0
  (assert (forall ((y Int)) (=> (not (= y 0)) (= (mod 0 y) 0))))

;; Div_1_left
  (assert (forall ((y Int)) (=> (< 1 y) (= (div 1 y) 0))))

;; Div_minus1_left
  (assert (forall ((y Int)) (=> (< 1 y) (= (div (- 1) y) (- 1)))))

;; Mod_1_left
  (assert (forall ((y Int)) (=> (< 1 y) (= (mod 1 y) 1))))

;; Mod_minus1_left
  (assert
  (forall ((y Int))
  (! (=> (< 1 y) (= (mod (- 1) y) (- y 1))) :pattern ((mod (- 1) y)) )))

;; Div_mult
  (assert
  (forall ((x Int) (y Int) (z Int))
  (! (=> (< 0 x) (= (div (+ (* x y) z) x) (+ y (div z x)))) :pattern ((div (+ (* x y) z) x)) )))

;; Mod_mult
  (assert
  (forall ((x Int) (y Int) (z Int))
  (! (=> (< 0 x) (= (mod (+ (* x y) z) x) (mod z x))) :pattern ((mod (+ (* x y) z) x)) )))

(declare-fun rotate_right1 ((_ BitVec 16) Int) (_ BitVec 16))

(declare-fun rotate_left1 ((_ BitVec 16) Int) (_ BitVec 16))

(declare-fun pow2 (Int) Int)

(define-fun to_int1 ((x (_ BitVec 16))) Int (ite (bvsge x (_ bv0 16))
                                            (bv2nat x)
                                            (- (- 65536 (bv2nat x)))))

(define-fun uint_in_range ((i Int)) Bool (and (<= 0 i) (<= i 65535)))

;; lsr_bv_is_lsr
  (assert
  (forall ((x (_ BitVec 16)) (n (_ BitVec 16)))
  (= (bvlshr x n) (lsr x (bv2nat n)))))

;; asr_bv_is_asr
  (assert
  (forall ((x (_ BitVec 16)) (n (_ BitVec 16)))
  (= (bvashr x n) (asr x (bv2nat n)))))

;; lsl_bv_is_lsl
  (assert
  (forall ((x (_ BitVec 16)) (n (_ BitVec 16)))
  (= (bvshl x n) (lsl x (bv2nat n)))))

;; rotate_left_bv_is_rotate_left
  (assert
  (forall ((v (_ BitVec 16)) (n (_ BitVec 16)))
  (= (bvor (bvshl v (bvurem n (_ bv16 16))) (bvlshr v (bvsub (_ bv16 16) (bvurem n (_ bv16 16))))) 
  (rotate_left1 v (bv2nat n)))))

;; rotate_right_bv_is_rotate_right
  (assert
  (forall ((v (_ BitVec 16)) (n (_ BitVec 16)))
  (= (bvor (bvlshr v (bvurem n (_ bv16 16))) (bvshl v (bvsub (_ bv16 16) (bvurem n (_ bv16 16))))) 
  (rotate_right1 v (bv2nat n)))))

(declare-fun nth_bv ((_ BitVec 16) (_ BitVec 16)) Bool)

;; nth_bv_def
  (assert
  (forall ((x (_ BitVec 16)) (i (_ BitVec 16)))
  (= (= (nth_bv x i) true) (not (= (bvand (bvlshr x i) #x0001) #x0000)))))

;; Nth_bv_is_nth
  (assert
  (forall ((x (_ BitVec 16)) (i (_ BitVec 16)))
  (= (nth x (bv2nat i)) (nth_bv x i))))

;; Nth_bv_is_nth2
  (assert
  (forall ((x (_ BitVec 16)) (i Int))
  (=> (and (<= 0 i) (< i 65536)) (= (nth_bv x ((_ int2bv 16) i)) (nth x i)))))

(declare-fun eq_sub_bv ((_ BitVec 16) (_ BitVec 16) (_ BitVec 16)
  (_ BitVec 16)) Bool)

;; eq_sub_bv_def
  (assert
  (forall ((a (_ BitVec 16)) (b (_ BitVec 16)) (i (_ BitVec 16))
  (n (_ BitVec 16)))
  (let ((mask (bvshl (bvsub (bvshl #x0001 n) #x0001) i)))
  (= (eq_sub_bv a b i n) (= (bvand b mask) (bvand a mask))))))

(define-fun eq_sub ((a (_ BitVec 16)) (b (_ BitVec 16)) (i Int)
  (n Int)) Bool (forall ((j Int))
                (=> (and (<= i j) (< j (+ i n))) (= (nth a j) (nth b j)))))

;; eq_sub_equiv
  (assert
  (forall ((a (_ BitVec 16)) (b (_ BitVec 16)) (i (_ BitVec 16))
  (n (_ BitVec 16)))
  (= (eq_sub a b (bv2nat i) (bv2nat n)) (eq_sub_bv a b i n))))

(declare-datatypes ((t__ref 0))
(((t__refqtmk (t__content (_ BitVec 16))))))
(declare-fun power ((_ BitVec 16) Int) (_ BitVec 16))

(define-fun bv_min ((x (_ BitVec 16))
  (y (_ BitVec 16))) (_ BitVec 16) (ite (bvule x y) x y))

(define-fun bv_max ((x (_ BitVec 16))
  (y (_ BitVec 16))) (_ BitVec 16) (ite (bvule x y) y x))

(define-fun min ((x Int) (y Int)) Int (ite (<= x y) x y))

(define-fun max ((x Int) (y Int)) Int (ite (<= x y) y x))

;; Min_r
  (assert (forall ((x Int) (y Int)) (=> (<= y x) (= (min x y) y))))

;; Max_l
  (assert (forall ((x Int) (y Int)) (=> (<= y x) (= (max x y) x))))

;; Min_comm
  (assert (forall ((x Int) (y Int)) (= (min x y) (min y x))))

;; Max_comm
  (assert (forall ((x Int) (y Int)) (= (max x y) (max y x))))

;; Min_assoc
  (assert
  (forall ((x Int) (y Int) (z Int)) (= (min (min x y) z) (min x (min y z)))))

;; Max_assoc
  (assert
  (forall ((x Int) (y Int) (z Int)) (= (max (max x y) z) (max x (max y z)))))

(define-fun in_range ((x Int)) Bool (or (= x 0) (= x 1)))

(declare-fun attr__ATTRIBUTE_IMAGE (Bool) us_image)

(declare-fun attr__ATTRIBUTE_VALUE__pre_check (us_image) Bool)

(declare-fun attr__ATTRIBUTE_VALUE (us_image) Bool)

(declare-sort integer 0)

(declare-fun integerqtint (integer) Int)

;; integer'axiom
  (assert
  (forall ((i integer))
  (and (<= (- 2147483648) (integerqtint i)) (<= (integerqtint i) 2147483647))))

(define-fun in_range1 ((x Int)) Bool (and (<= (- 2147483648) x)
                                     (<= x 2147483647)))

(declare-fun attr__ATTRIBUTE_IMAGE1 (Int) us_image)

(declare-fun attr__ATTRIBUTE_VALUE__pre_check1 (us_image) Bool)

(declare-fun attr__ATTRIBUTE_VALUE1 (us_image) Int)

(declare-fun user_eq (integer integer) Bool)

(declare-const dummy integer)

(declare-datatypes ((integer__ref 0))
(((integer__refqtmk (integer__content integer)))))
(define-fun integer__ref_integer__content__projection ((a integer__ref)) integer 
  (integer__content a))

(define-fun dynamic_invariant ((temp___expr_18 Int) (temp___is_init_14 Bool)
  (temp___skip_constant_15 Bool) (temp___do_toplevel_16 Bool)
  (temp___do_typ_inv_17 Bool)) Bool (=>
                                    (or (= temp___is_init_14 true)
                                    (<= (- 2147483648) 2147483647))
                                    (in_range1 temp___expr_18)))

(define-fun to_rep ((x integer)) Int (integerqtint x))

(declare-fun of_rep (Int) integer)

;; inversion_axiom
  (assert
  (forall ((x integer)) (! (= (of_rep (to_rep x)) x) :pattern ((to_rep x)) )))

;; range_axiom
  (assert
  (forall ((x integer)) (! (in_range1 (to_rep x)) :pattern ((to_rep x)) )))

;; coerce_axiom
  (assert
  (forall ((x Int))
  (! (=> (in_range1 x) (= (to_rep (of_rep x)) x)) :pattern ((to_rep
                                                            (of_rep x))) )))

(declare-sort ar_index 0)

(declare-const attr__ATTRIBUTE_MODULUS (_ BitVec 16))

(declare-fun attr__ATTRIBUTE_IMAGE2 ((_ BitVec 16)) us_image)

(declare-fun attr__ATTRIBUTE_VALUE__pre_check2 (us_image) Bool)

(declare-fun attr__ATTRIBUTE_VALUE2 (us_image) (_ BitVec 16))

(declare-fun user_eq1 (ar_index ar_index) Bool)

(declare-const dummy1 ar_index)

(declare-datatypes ((ar_index__ref 0))
(((ar_index__refqtmk (ar_index__content ar_index)))))
(define-fun ar_index__ref_ar_index__content__projection ((a ar_index__ref)) ar_index 
  (ar_index__content a))

(declare-fun to_rep1 (ar_index) (_ BitVec 16))

(declare-fun of_rep1 ((_ BitVec 16)) ar_index)

;; inversion_axiom
  (assert
  (forall ((x ar_index))
  (! (= (of_rep1 (to_rep1 x)) x) :pattern ((to_rep1 x)) )))

;; range_axiom
  (assert true)

;; coerce_axiom
  (assert
  (forall ((x (_ BitVec 16)))
  (! (= (to_rep1 (of_rep1 x)) x) :pattern ((to_rep1 (of_rep1 x))) )))

(define-fun to_int2 ((x ar_index)) Int (bv2nat (to_rep1 x)))

;; range_int_axiom
  (assert
  (forall ((x ar_index)) (! (uint_in_range
  (to_int2 x)) :pattern ((to_int2 x)) )))

(declare-sort length_type 0)

(declare-fun length_typeqtint (length_type) Int)

;; length_type'axiom
  (assert
  (forall ((i length_type))
  (and (<= 0 (length_typeqtint i)) (<= (length_typeqtint i) 65536))))

(define-fun in_range2 ((x Int)) Bool (and (<= 0 x) (<= x 65536)))

(declare-fun attr__ATTRIBUTE_IMAGE3 (Int) us_image)

(declare-fun attr__ATTRIBUTE_VALUE__pre_check3 (us_image) Bool)

(declare-fun attr__ATTRIBUTE_VALUE3 (us_image) Int)

(declare-fun user_eq2 (length_type length_type) Bool)

(declare-const dummy2 length_type)

(declare-datatypes ((length_type__ref 0))
(((length_type__refqtmk (length_type__content length_type)))))
(define-fun length_type__ref_length_type__content__projection ((a length_type__ref)) length_type 
  (length_type__content a))

(define-fun to_rep2 ((x length_type)) Int (length_typeqtint x))

(declare-fun of_rep2 (Int) length_type)

;; inversion_axiom
  (assert
  (forall ((x length_type))
  (! (= (of_rep2 (to_rep2 x)) x) :pattern ((to_rep2 x)) )))

;; range_axiom
  (assert
  (forall ((x length_type)) (! (in_range2
  (to_rep2 x)) :pattern ((to_rep2 x)) )))

;; coerce_axiom
  (assert
  (forall ((x Int))
  (! (=> (in_range2 x) (= (to_rep2 (of_rep2 x)) x)) :pattern ((to_rep2
                                                              (of_rep2 x))) )))

(declare-datatypes ((map__ref 0))
(((map__refqtmk (map__content (Array (_ BitVec 16) integer))))))
(declare-fun slide ((Array (_ BitVec 16) integer) (_ BitVec 16)
  (_ BitVec 16)) (Array (_ BitVec 16) integer))

;; slide_eq
  (assert
  (forall ((a (Array (_ BitVec 16) integer)))
  (forall ((first (_ BitVec 16)))
  (! (= (slide a first first) a) :pattern ((slide a first first)) ))))

;; slide_def
  (assert
  (forall ((a (Array (_ BitVec 16) integer)))
  (forall ((old_first (_ BitVec 16)))
  (forall ((new_first (_ BitVec 16)))
  (forall ((i (_ BitVec 16)))
  (! (= (select (slide a old_first new_first) i) (select a (bvsub i (bvsub new_first old_first)))) :pattern ((select 
  (slide a old_first new_first) i)) ))))))

(define-fun bool_eq ((a (Array (_ BitVec 16) integer))
  (a__first (_ BitVec 16)) (a__last (_ BitVec 16))
  (b (Array (_ BitVec 16) integer)) (b__first (_ BitVec 16))
  (b__last (_ BitVec 16))) Bool (ite (and
                                     (ite (bvule a__first a__last)
                                     (and (bvule b__first b__last)
                                     (= (bvsub a__last a__first) (bvsub b__last b__first)))
                                     (bvugt b__first b__last))
                                     (forall ((temp___idx_154 (_ BitVec 16)))
                                     (=>
                                     (and (bvule a__first temp___idx_154)
                                     (bvule temp___idx_154 a__last))
                                     (= (to_rep (select a temp___idx_154)) 
                                     (to_rep
                                     (select b (bvadd (bvsub b__first a__first) temp___idx_154)))))))
                                true false))

;; bool_eq_rev
  (assert
  (forall ((a (Array (_ BitVec 16) integer))
  (b (Array (_ BitVec 16) integer)))
  (forall ((a__first (_ BitVec 16)) (a__last (_ BitVec 16))
  (b__first (_ BitVec 16)) (b__last (_ BitVec 16)))
  (=> (= (bool_eq b b__first b__last a a__first a__last) true)
  (and
  (ite (bvule a__first a__last)
  (and (bvule b__first b__last)
  (= (bvsub a__last a__first) (bvsub b__last b__first)))
  (bvugt b__first b__last))
  (forall ((temp___idx_154 (_ BitVec 16)))
  (=> (and (bvule a__first temp___idx_154) (bvule temp___idx_154 a__last))
  (= (to_rep (select a temp___idx_154)) (to_rep
                                        (select b (bvadd (bvsub b__first a__first) temp___idx_154)))))))))))

(declare-const dummy3 (Array (_ BitVec 16) integer))

(declare-const value__size Int)

(declare-const object__size Int)

(declare-const component__size Int)

(declare-const alignment Int)

;; value__size_axiom
  (assert (<= 0 value__size))

;; object__size_axiom
  (assert (<= 0 object__size))

;; component__size_axiom
  (assert (<= 0 component__size))

;; alignment_axiom
  (assert (<= 0 alignment))

(declare-fun user_eq3 ((Array (_ BitVec 16) integer)
  (Array (_ BitVec 16) integer)) Bool)

(declare-datatypes ((us_split_fields 0))
(((us_split_fieldsqtmk
  (rec__ring_buf__ring_buffer__data (Array (_ BitVec 16) integer))(rec__ring_buf__ring_buffer__first ar_index)(rec__ring_buf__ring_buffer__length length_type)))))
(define-fun us_split_fields_rec__ring_buf__ring_buffer__data__projection ((a us_split_fields)) (Array (_ BitVec 16) integer) 
  (rec__ring_buf__ring_buffer__data a))

(define-fun us_split_fields_rec__ring_buf__ring_buffer__first__projection ((a us_split_fields)) ar_index 
  (rec__ring_buf__ring_buffer__first a))

(define-fun us_split_fields_rec__ring_buf__ring_buffer__length__projection ((a us_split_fields)) length_type 
  (rec__ring_buf__ring_buffer__length a))

(declare-datatypes ((us_split_fields__ref 0))
(((us_split_fields__refqtmk (us_split_fields__content us_split_fields)))))
(define-fun us_split_fields__ref___split_fields__content__projection ((a us_split_fields__ref)) us_split_fields 
  (us_split_fields__content a))

(declare-datatypes ((us_rep 0))
(((us_repqtmk (us_split_fields1 us_split_fields)))))
(define-fun us_rep___split_fields__projection ((a us_rep)) us_split_fields 
  (us_split_fields1 a))

(define-fun bool_eq1 ((a us_rep)
  (b us_rep)) Bool (ite (and
                        (and
                        (= (bool_eq
                           (rec__ring_buf__ring_buffer__data
                           (us_split_fields1 a)) #x0000 #xFFFF
                           (rec__ring_buf__ring_buffer__data
                           (us_split_fields1 b)) #x0000 #xFFFF) true)
                        (= (to_rep1
                           (rec__ring_buf__ring_buffer__first
                           (us_split_fields1 a))) (to_rep1
                                                  (rec__ring_buf__ring_buffer__first
                                                  (us_split_fields1 b)))))
                        (= (to_rep2
                           (rec__ring_buf__ring_buffer__length
                           (us_split_fields1 a))) (to_rep2
                                                  (rec__ring_buf__ring_buffer__length
                                                  (us_split_fields1 b)))))
                   true false))

(declare-const value__size1 Int)

(declare-const object__size1 Int)

(declare-const alignment1 Int)

;; value__size_axiom
  (assert (<= 0 value__size1))

;; object__size_axiom
  (assert (<= 0 object__size1))

;; alignment_axiom
  (assert (<= 0 alignment1))

(declare-const ring_buf__ring_buffer__data__first__bit Int)

(declare-const ring_buf__ring_buffer__data__last__bit Int)

(declare-const ring_buf__ring_buffer__data__position Int)

;; ring_buf__ring_buffer__data__first__bit_axiom
  (assert (<= 0 ring_buf__ring_buffer__data__first__bit))

;; ring_buf__ring_buffer__data__last__bit_axiom
  (assert
  (< ring_buf__ring_buffer__data__first__bit ring_buf__ring_buffer__data__last__bit))

;; ring_buf__ring_buffer__data__position_axiom
  (assert (<= 0 ring_buf__ring_buffer__data__position))

(declare-const ring_buf__ring_buffer__first__first__bit Int)

(declare-const ring_buf__ring_buffer__first__last__bit Int)

(declare-const ring_buf__ring_buffer__first__position Int)

;; ring_buf__ring_buffer__first__first__bit_axiom
  (assert (<= 0 ring_buf__ring_buffer__first__first__bit))

;; ring_buf__ring_buffer__first__last__bit_axiom
  (assert
  (< ring_buf__ring_buffer__first__first__bit ring_buf__ring_buffer__first__last__bit))

;; ring_buf__ring_buffer__first__position_axiom
  (assert (<= 0 ring_buf__ring_buffer__first__position))

(declare-const ring_buf__ring_buffer__length__first__bit Int)

(declare-const ring_buf__ring_buffer__length__last__bit Int)

(declare-const ring_buf__ring_buffer__length__position Int)

;; ring_buf__ring_buffer__length__first__bit_axiom
  (assert (<= 0 ring_buf__ring_buffer__length__first__bit))

;; ring_buf__ring_buffer__length__last__bit_axiom
  (assert
  (< ring_buf__ring_buffer__length__first__bit ring_buf__ring_buffer__length__last__bit))

;; ring_buf__ring_buffer__length__position_axiom
  (assert (<= 0 ring_buf__ring_buffer__length__position))

(declare-fun user_eq4 (us_rep us_rep) Bool)

(declare-const dummy4 us_rep)

(declare-datatypes ((ring_buffer__ref 0))
(((ring_buffer__refqtmk (ring_buffer__content us_rep)))))
(define-fun ring_buffer__ref_ring_buffer__content__projection ((a ring_buffer__ref)) us_rep 
  (ring_buffer__content a))

(declare-sort t 0)

(declare-fun first (t) ar_index)

(declare-fun last (t) ar_index)

(declare-fun mk ((_ BitVec 16) (_ BitVec 16)) t)

;; mk_def
  (assert
  (forall ((f (_ BitVec 16)) (l (_ BitVec 16)))
  (! (and (= (to_rep1 (first (mk f l))) f) (= (to_rep1 (last (mk f l))) l)) :pattern (
  (mk f l)) )))

(define-fun dynamic_property ((range_first (_ BitVec 16))
  (range_last (_ BitVec 16)) (low (_ BitVec 16))
  (high (_ BitVec 16))) Bool true)

(declare-datatypes ((us_t 0))
(((us_tqtmk (elts (Array (_ BitVec 16) integer))(rt t)))))
(define-fun to_array ((a us_t)) (Array (_ BitVec 16) integer) (elts a))

(define-fun of_array ((a (Array (_ BitVec 16) integer)) (f (_ BitVec 16))
  (l (_ BitVec 16))) us_t (us_tqtmk a (mk f l)))

(define-fun first1 ((a us_t)) (_ BitVec 16) (to_rep1 (first (rt a))))

(define-fun last1 ((a us_t)) (_ BitVec 16) (to_rep1 (last (rt a))))

(define-fun length ((a us_t)) Int (ite (bvule (first1 a) (last1 a))
                                  (+ (- (bv2nat (last1 a)) (bv2nat (first1 a))) 1)
                                  0))

(declare-const value__size2 Int)

(declare-const object__size2 Int)

(declare-const component__size1 Int)

(declare-const alignment2 Int)

;; value__size_axiom
  (assert (<= 0 value__size2))

;; object__size_axiom
  (assert (<= 0 object__size2))

;; component__size_axiom
  (assert (<= 0 component__size1))

;; alignment_axiom
  (assert (<= 0 alignment2))

(define-fun bool_eq2 ((x us_t)
  (y us_t)) Bool (bool_eq (elts x) (to_rep1 (first (rt x)))
                 (to_rep1 (last (rt x))) (elts y) (to_rep1 (first (rt y)))
                 (to_rep1 (last (rt y)))))

(declare-fun user_eq5 (us_t us_t) Bool)

(declare-const dummy5 us_t)

(declare-datatypes ((model__ref 0))
(((model__refqtmk (model__content us_t)))))
(define-fun model__ref_model__content__projection ((a model__ref)) us_t 
  (model__content a))

(declare-fun to_model (us_rep) us_t)

(declare-fun to_model__function_guard (us_t us_rep) Bool)

(define-fun length1 ((x Int) (y Int)) Int (ite (<= x y) (+ (- y x) 1) 0))

(declare-fun concat1 ((Array (_ BitVec 16) integer) (_ BitVec 16)
  (_ BitVec 16) (Array (_ BitVec 16) integer) (_ BitVec 16)
  (_ BitVec 16)) (Array (_ BitVec 16) integer))

;; concat_def
  (assert
  (forall ((a (Array (_ BitVec 16) integer))
  (b (Array (_ BitVec 16) integer)))
  (forall ((a_first (_ BitVec 16)) (a_last (_ BitVec 16))
  (b_first (_ BitVec 16)) (b_last (_ BitVec 16)))
  (forall ((i (_ BitVec 16)))
  (! (and
     (=> (and (bvule a_first i) (bvule i a_last))
     (= (select (concat1 a a_first a_last b b_first b_last) i) (select a i)))
     (=> (bvugt i a_last)
     (= (select (concat1 a a_first a_last b b_first b_last) i) (select b (bvadd (bvsub i a_last) (bvsub b_first #x0001)))))) :pattern ((select 
  (concat1 a a_first a_last b b_first b_last) i)) )))))

(declare-fun concat_singleton_left (integer (_ BitVec 16)
  (Array (_ BitVec 16) integer) (_ BitVec 16)
  (_ BitVec 16)) (Array (_ BitVec 16) integer))

;; concat_singleton_left_def
  (assert
  (forall ((a integer))
  (forall ((b (Array (_ BitVec 16) integer)))
  (forall ((a_first (_ BitVec 16)) (b_first (_ BitVec 16))
  (b_last (_ BitVec 16)))
  (! (and
     (= (select (concat_singleton_left a a_first b b_first b_last) a_first) a)
     (forall ((i (_ BitVec 16)))
     (! (=> (bvugt i a_first)
        (= (select (concat_singleton_left a a_first b b_first b_last) i) (select b (bvadd (bvsub i a_first) (bvsub b_first #x0001))))) :pattern ((select 
     (concat_singleton_left a a_first b b_first b_last) i)) ))) :pattern (
  (concat_singleton_left a a_first b b_first b_last)) )))))

(declare-fun concat_singleton_right ((Array (_ BitVec 16) integer)
  (_ BitVec 16) (_ BitVec 16) integer) (Array (_ BitVec 16) integer))

;; concat_singleton_right_def
  (assert
  (forall ((a (Array (_ BitVec 16) integer)))
  (forall ((b integer))
  (forall ((a_first (_ BitVec 16)) (a_last (_ BitVec 16)))
  (! (and
     (= (select (concat_singleton_right a a_first a_last b) (bvadd a_last #x0001)) b)
     (forall ((i (_ BitVec 16)))
     (! (=> (and (bvule a_first i) (bvule i a_last))
        (= (select (concat_singleton_right a a_first a_last b) i) (select a i))) :pattern ((select 
     (concat_singleton_right a a_first a_last b) i)) :pattern ((select a i)) ))) :pattern (
  (concat_singleton_right a a_first a_last b)) )))))

(declare-fun concat_singletons (integer (_ BitVec 16)
  integer) (Array (_ BitVec 16) integer))

;; concat_singletons_def
  (assert
  (forall ((a integer) (b integer))
  (forall ((a_first (_ BitVec 16)))
  (! (and (= (select (concat_singletons a a_first b) a_first) a)
     (= (select (concat_singletons a a_first b) (bvadd a_first #x0001)) b)) :pattern (
  (concat_singletons a a_first b)) ))))

(declare-fun singleton1 (integer
  (_ BitVec 16)) (Array (_ BitVec 16) integer))

;; singleton_def
  (assert
  (forall ((v integer))
  (forall ((i (_ BitVec 16)))
  (! (= (select (singleton1 v i) i) v) :pattern ((select (singleton1 v i) i)) ))))

(define-fun dynamic_invariant1 ((temp___expr_180 us_t)
  (temp___is_init_176 Bool) (temp___skip_constant_177 Bool)
  (temp___do_toplevel_178 Bool)
  (temp___do_typ_inv_179 Bool)) Bool (=>
                                     (not (= temp___skip_constant_177 true))
                                     (dynamic_property #x0000 #xFFFF
                                     (first1 temp___expr_180)
                                     (last1 temp___expr_180))))

(declare-datatypes ((t22s__ref 0))
(((t22s__refqtmk (t22s__content us_t)))))
(define-fun t22s__ref_t22s__content__projection ((a t22s__ref)) us_t 
  (t22s__content a))

(declare-datatypes ((t24s__ref 0))
(((t24s__refqtmk (t24s__content us_t)))))
(define-fun t24s__ref_t24s__content__projection ((a t24s__ref)) us_t 
  (t24s__content a))

(declare-datatypes ((t26s__ref 0))
(((t26s__refqtmk (t26s__content us_t)))))
(define-fun t26s__ref_t26s__content__projection ((a t26s__ref)) us_t 
  (t26s__content a))

;; to_model__post_axiom
  (assert
  (forall ((r us_rep))
  (! (let ((result (to_model r)))
     (=> (to_model__function_guard result r) (dynamic_invariant1 result true
     false true true))) :pattern ((to_model r)) )))

;; to_model__def_axiom
  (assert
  (forall ((r us_rep))
  (! (= (to_model r) (ite (< 65535 (- (+ (bv2nat (to_rep1
                                                 (rec__ring_buf__ring_buffer__first
                                                 (us_split_fields1 r)))) 
                     (to_rep2
                     (rec__ring_buf__ring_buffer__length
                     (us_split_fields1 r)))) 1))
                     (let ((temp___228 (let ((temp___225 (bvsub (bvsub (bvadd #x0000 ((_ int2bv 16) 
                                       (to_rep2
                                       (rec__ring_buf__ring_buffer__length
                                       (us_split_fields1 r))))) (bvsub #xFFFF 
                                       (to_rep1
                                       (rec__ring_buf__ring_buffer__first
                                       (us_split_fields1 r))))) #x0001)))
                                       (let ((temp___224 #x0000))
                                       (let ((temp___226 (rec__ring_buf__ring_buffer__data
                                                         (us_split_fields1 r))))
                                       (of_array temp___226 temp___224
                                       temp___225))))))
                     (let ((temp___227 (let ((temp___222 #xFFFF))
                                       (let ((temp___221 (to_rep1
                                                         (rec__ring_buf__ring_buffer__first
                                                         (us_split_fields1 r)))))
                                       (let ((temp___223 (rec__ring_buf__ring_buffer__data
                                                         (us_split_fields1 r))))
                                       (of_array temp___223 temp___221
                                       temp___222))))))
                     (ite (= (length temp___227) 0)
                     (of_array (to_array temp___228) (first1 temp___228)
                     (last1 temp___228))
                     (of_array
                     (concat1 (to_array temp___227) (first1 temp___227)
                     (last1 temp___227) (to_array temp___228)
                     (first1 temp___228) (last1 temp___228))
                     (first1 temp___227)
                     ((_ int2bv 16) (- (+ (bv2nat (first1 temp___227)) (+ 
                     (length1 (bv2nat (first1 temp___227))
                     (bv2nat (last1 temp___227))) (length1
                                                  (bv2nat (first1 temp___228))
                                                  (bv2nat (last1 temp___228))))) 1))))))
                     (let ((temp___232 (let ((temp___230 (bvsub (bvadd 
                                       (to_rep1
                                       (rec__ring_buf__ring_buffer__first
                                       (us_split_fields1 r))) ((_ int2bv 16) 
                                       (to_rep2
                                       (rec__ring_buf__ring_buffer__length
                                       (us_split_fields1 r))))) #x0001)))
                                       (let ((temp___229 (to_rep1
                                                         (rec__ring_buf__ring_buffer__first
                                                         (us_split_fields1 r)))))
                                       (let ((temp___231 (rec__ring_buf__ring_buffer__data
                                                         (us_split_fields1 r))))
                                       (of_array temp___231 temp___229
                                       temp___230))))))
                     (of_array (to_array temp___232) (first1 temp___232)
                     (last1 temp___232))))) :pattern ((to_model r)) )))

(declare-fun func_head (us_t) Int)

(declare-fun func_head__function_guard (Int us_t) Bool)

;; func_head__post_axiom
  (assert
  (forall ((m us_t))
  (! (=> (and (dynamic_invariant1 m true true true true) (< 0 (length m)))
     (let ((result (func_head m)))
     (=> (func_head__function_guard result m) (dynamic_invariant result true
     false true true)))) :pattern ((func_head m)) )))

;; func_head__def_axiom
  (assert
  (forall ((m us_t))
  (! (=> (dynamic_invariant1 m true true true true)
     (= (func_head m) (to_rep (select (to_array m) (first1 m))))) :pattern (
  (func_head m)) )))

(declare-fun func_pop (us_t) us_t)

(declare-fun func_pop__function_guard (us_t us_t) Bool)

(declare-datatypes ((t32s__ref 0))
(((t32s__refqtmk (t32s__content us_t)))))
(define-fun t32s__ref_t32s__content__projection ((a t32s__ref)) us_t 
  (t32s__content a))

;; func_pop__post_axiom
  (assert
  (forall ((m us_t))
  (! (=> (and (dynamic_invariant1 m true true true true) (< 0 (length m)))
     (let ((result (func_pop m)))
     (=> (func_pop__function_guard result m) (dynamic_invariant1 result true
     false true true)))) :pattern ((func_pop m)) )))

;; func_pop__def_axiom
  (assert
  (forall ((m us_t))
  (! (=> (dynamic_invariant1 m true true true true)
     (= (func_pop m) (let ((temp___248 (let ((temp___247 (bvsub (last1 m) #x0001)))
                                       (let ((temp___246 (first1 m)))
                                       (of_array (to_array m) temp___246
                                       temp___247)))))
                     (of_array (to_array temp___248) (first1 temp___248)
                     (last1 temp___248))))) :pattern ((func_pop m)) )))

(declare-fun is_empty (us_rep) Bool)

(declare-fun is_empty__function_guard (Bool us_rep) Bool)

;; is_empty__post_axiom
  (assert true)

;; is_empty__def_axiom
  (assert
  (forall ((r us_rep))
  (! (= (= (is_empty r) true)
     (= (to_rep2 (rec__ring_buf__ring_buffer__length (us_split_fields1 r))) 0)) :pattern (
  (is_empty r)) )))

(declare-const attr__ATTRIBUTE_ADDRESS Int)

(declare-const attr__ATTRIBUTE_ADDRESS1 Int)

(define-fun dynamic_invariant2 ((temp___expr_166 (_ BitVec 16))
  (temp___is_init_162 Bool) (temp___skip_constant_163 Bool)
  (temp___do_toplevel_164 Bool) (temp___do_typ_inv_165 Bool)) Bool true)

(define-fun dynamic_invariant3 ((temp___expr_173 Int)
  (temp___is_init_169 Bool) (temp___skip_constant_170 Bool)
  (temp___do_toplevel_171 Bool)
  (temp___do_typ_inv_172 Bool)) Bool (=>
                                     (or (= temp___is_init_169 true)
                                     (<= 0 65536)) (in_range2
                                     temp___expr_173)))

(assert
;; defqtvc
 ;; File "ring_buf.ads", line 69, characters 0-0
  (not
  (forall ((r__split_fields us_split_fields) (element Int))
  (=> (dynamic_invariant element false false true true)
  (=>
  (forall ((r__split_fields1 us_split_fields)) (is_empty__function_guard
  (is_empty (us_repqtmk r__split_fields1)) (us_repqtmk r__split_fields1)))
  (=> (not (= (is_empty (us_repqtmk r__split_fields)) true))
  (=>
  (forall ((r__split_fields1 us_split_fields)) (to_model__function_guard
  (to_model (us_repqtmk r__split_fields1)) (us_repqtmk r__split_fields1)))
  (=>
  (forall ((r__split_fields1 us_split_fields)) (to_model__function_guard
  (to_model (us_repqtmk r__split_fields1)) (us_repqtmk r__split_fields1)))
  (forall ((o (_ BitVec 16)))
  (=> (= (to_rep1 (rec__ring_buf__ring_buffer__first r__split_fields)) o)
  (forall ((o1 Int))
  (=>
  (= (to_rep (select (rec__ring_buf__ring_buffer__data r__split_fields) o)) o1)
  (forall ((element1 Int))
  (=> (= element1 o1)
  (forall ((o2 (_ BitVec 16)))
  (=> (= (to_rep1 (rec__ring_buf__ring_buffer__first r__split_fields)) o2)
  (forall ((o3 ar_index))
  (=> (= (to_rep1 o3) (bvadd o2 #x0001))
  (forall ((r__split_fields1 us_split_fields))
  (=>
  (= r__split_fields1 (us_split_fieldsqtmk
                      (rec__ring_buf__ring_buffer__data r__split_fields) o3
                      (rec__ring_buf__ring_buffer__length r__split_fields)))
  (forall ((o4 Int))
  (=> (= (to_rep2 (rec__ring_buf__ring_buffer__length r__split_fields1)) o4)
  (in_range2 (- o4 1))))))))))))))))))))))))
(check-sat)
